Executando Fernandes MODIFICADO
Rodando pra 1h
Optimize a model with 55 rows, 60 columns and 441 nonzeros
Coefficient statistics:
  Matrix range    [1e+00, 1e+07]
  Objective range [1e+00, 1e+00]
  Bounds range    [1e+00, 1e+07]
  RHS range       [1e+00, 4e+00]
Found heuristic solution: objective 249
Presolve removed 23 rows and 19 columns
Presolve time: 0.00s
Presolved: 32 rows, 41 columns, 170 nonzeros
Variable types: 20 continuous, 21 integer (20 binary)

Root relaxation: objective 0.000000e+00, 17 iterations, 0.00 seconds

    Nodes    |    Current Node    |     Objective Bounds      |     Work
 Expl Unexpl |  Obj  Depth IntInf | Incumbent    BestBd   Gap | It/Node Time

     0     0    0.00000    0    7  249.00000    0.00000   100%     -    0s
H    0     0                     222.0000000    0.00000   100%     -    0s
H    0     0                     210.0000000    0.00000   100%     -    0s
     0     0    0.00000    0    8  210.00000    0.00000   100%     -    0s
     0     0    0.00000    0    9  210.00000    0.00000   100%     -    0s
     0     0    0.00000    0   15  210.00000    0.00000   100%     -    0s
     0     0    0.00000    0    8  210.00000    0.00000   100%     -    0s
H    0     0                     190.0000000    0.00000   100%     -    0s
H    0     0                     172.0000000    0.00000   100%     -    0s
H    0     0                     154.0000000    0.00000   100%     -    0s
     0     2    0.00000    0    7  154.00000    0.00000   100%     -    0s
*   64    19               7     139.0000000   75.25000  45.9%   2.8    0s

Cutting planes:
  Gomory: 2
  Cover: 1
  MIR: 5
  Flow cover: 4
  Network: 2

Explored 146 nodes (514 simplex iterations) in 0.02 seconds
Thread count was 1 (of 4 available processors)

Optimal solution found (tolerance 1.00e-04)
Best objective 1.390000000000e+02, best bound 1.390000000000e+02, gap 0.0%
Tempo: 0.01 segundos

0 1 87 26 67 20 68 
1 3 10 36 39 58 16 
2 3 35 36 45 37 37 
2 4 0 3 71 24 66 
(132 101 222 139 187 )

